Gurobi Optimizer version 9.1.2 build v9.1.2rc0 (linux64)
Thread count: 36 physical cores, 72 logical processors, using up to 32 threads
Optimize a model with 12 rows, 57 columns and 590 nonzeros
Model fingerprint: 0xf32eec78
Model has 47 quadratic constraints
Coefficient statistics:
  Matrix range     [2e-05, 3e+00]
  QMatrix range    [1e+00, 1e+00]
  QLMatrix range   [1e+00, 1e+00]
  Objective range  [8e-03, 7e-01]
  Bounds range     [1e+00, 1e+00]
  RHS range        [1e+00, 1e+00]
Presolve removed 9 rows and 0 columns

Continuous model is non-convex -- solving as a MIP.

Presolve removed 9 rows and 0 columns
Presolve time: 0.00s
Presolved: 189 rows, 57 columns, 443 nonzeros
Presolved model has 47 bilinear constraint(s)
Variable types: 57 continuous, 0 integer (0 binary)

Root relaxation: objective -1.743721e+00, 44 iterations, 0.00 seconds

    Nodes    |    Current Node    |     Objective Bounds      |     Work
 Expl Unexpl |  Obj  Depth IntInf | Incumbent    BestBd   Gap | It/Node Time

     0     0   -1.74372    0   38          -   -1.74372      -     -    0s
H    0     0                       0.6147548   -1.74372   384%     -    0s
     0     0   -1.64739    0    1    0.61475   -1.64739   368%     -    0s
H    0     0                      -1.6450460   -1.64739  0.14%     -    0s
     0     0     cutoff    0        -1.64505   -1.64505  0.00%     -    0s

Cutting planes:
  RLT: 25
  BQP: 3

Explored 1 nodes (76 simplex iterations) in 0.01 seconds
Thread count was 32 (of 72 available processors)

Solution count 2: -1.64505 0.614755 
No other solutions better than -1.64505

Optimal solution found (tolerance 1.00e-04)
Best objective -1.645045978473e+00, best bound -1.645045978473e+00, gap 0.0000%

User-callback calls 78, time in user-callback 0.00 sec
Gurobi Optimizer version 9.1.2 build v9.1.2rc0 (linux64)
Thread count: 36 physical cores, 72 logical processors, using up to 32 threads
Optimize a model with 24 rows, 125 columns and 2580 nonzeros
Model fingerprint: 0xa60b372a
Model has 105 quadratic constraints
Coefficient statistics:
  Matrix range     [5e-06, 5e+01]
  QMatrix range    [1e+00, 1e+00]
  QLMatrix range   [1e+00, 1e+00]
  Objective range  [9e-03, 1e+00]
  Bounds range     [1e+00, 1e+00]
  RHS range        [1e+00, 1e+00]
Presolve removed 10 rows and 0 columns

Continuous model is non-convex -- solving as a MIP.

Presolve removed 10 rows and 0 columns
Presolve time: 0.00s
Presolved: 429 rows, 125 columns, 2142 nonzeros
Presolved model has 105 bilinear constraint(s)
Variable types: 125 continuous, 0 integer (0 binary)

Root relaxation: objective -4.919601e+00, 119 iterations, 0.00 seconds

    Nodes    |    Current Node    |     Objective Bounds      |     Work
 Expl Unexpl |  Obj  Depth IntInf | Incumbent    BestBd   Gap | It/Node Time

     0     0   -4.91960    0   95          -   -4.91960      -     -    0s
H    0     0                       0.5407989   -4.91960  1010%     -    0s
     0     0   -3.88186    0   95    0.54080   -3.88186   818%     -    0s
H    0     0                      -0.7230554   -3.88186   437%     -    0s
     0     0   -3.76203    0   88   -0.72306   -3.76203   420%     -    0s
     0     0   -3.66402    0   72   -0.72306   -3.66402   407%     -    0s
H    0     0                      -1.5057515   -3.66402   143%     -    0s
     0     0   -3.66067    0   83   -1.50575   -3.66067   143%     -    0s
     0     0   -3.63512    0   83   -1.50575   -3.63512   141%     -    0s
     0     0   -3.63420    0   83   -1.50575   -3.63420   141%     -    0s
     0     0   -3.61930    0   95   -1.50575   -3.61930   140%     -    0s
     0     0   -3.61612    0   94   -1.50575   -3.61612   140%     -    0s
     0     0   -3.61335    0   93   -1.50575   -3.61335   140%     -    0s
     0     0   -3.61226    0   94   -1.50575   -3.61226   140%     -    0s
     0     0   -3.61205    0   94   -1.50575   -3.61205   140%     -    0s
     0     0   -3.61199    0   95   -1.50575   -3.61199   140%     -    0s
     0     0   -3.61185    0   93   -1.50575   -3.61185   140%     -    0s
H    0     0                      -1.9119420   -3.61185  88.9%     -    0s
H    0     0                      -2.2912020   -3.61185  57.6%     -    0s
H    0     0                      -2.3663250   -3.61185  52.6%     -    0s
H    0     0                      -2.4269223   -3.61185  48.8%     -    0s
H    0     0                      -2.4897599   -3.61185  45.1%     -    0s
     0     2   -3.61185    0   93   -2.48976   -3.61185  45.1%     -    0s
*  876   808              19      -2.8229667   -3.15098  11.6%  27.4    0s
*  877   808              19      -2.8229677   -3.15098  11.6%  27.4    0s
* 1103   830              28      -2.8233106   -3.12487  10.7%  23.9    0s
* 1134   830              20      -3.0340016   -3.12487  3.00%  23.7    0s
* 1137   830              22      -3.0341676   -3.12487  2.99%  23.6    0s
* 1395   597              18      -3.0346756   -3.12487  2.97%  20.6    0s
* 1551   288              20      -3.0346803   -3.05214  0.58%  18.8    0s

Cutting planes:
  RLT: 59
  BQP: 12
  PSD: 56

Explored 2139 nodes (29753 simplex iterations) in 0.65 seconds
Thread count was 32 (of 72 available processors)

Solution count 10: -3.03468 -3.03468 -3.03417 ... -2.2912
No other solutions better than -3.03468

Optimal solution found (tolerance 1.00e-04)
Best objective -3.034680306951e+00, best bound -3.034680306951e+00, gap 0.0000%

User-callback calls 4556, time in user-callback 0.00 sec



objective value: -3.034680306951013
objective bound: -3.034680306951013
x_opt: [0.0, 0.0, 1.0, 0.0, 1.0, 0.6715546827890346, 1.0, 1.0, 1.0, 0.0, 0.0, 0.19782110161342836, 0.0, 0.0, 0.0, 0.49405417179526406, 0.0, 0.0, 0.0055173019641087595, 0.0]
GUROBI solution time: 0.6496231555938721




